Maximize
  - 3.6769045815502 edge_0_1_0_0 - 2.6881768624974 edge_0_3_0_0
   - 2.2738716547456 edge_0_4_0_0 - 3.331617702327 edge_0_5_0_0
   - 1.3897310253579 edge_0_6_0_0 - 2.8382596594088 edge_0_7_0_0
   - 3.115262367009 edge_0_8_0_0 - 1.9901551517008 edge_0_9_0_0
   - 2.7306219084038 edge_0_10_0_0 - 4.0904447222276 edge_0_12_0_0
   - 3.4208781295314 edge_0_13_0_0 - 5.535262590456 edge_0_14_0_0
   - 2.23316 edge_0_16_0_0 - 0.1523011811435942 edge_1_2_0_0
   - 0.2214882022078996 edge_1_3_0_0 - 0.3279629142961327 edge_1_4_0_0
   - 0.6334962167375132 edge_1_6_0_0 - 0.50627396046032 edge_1_7_0_0
   + 0.3004093461543955 edge_1_8_0_0 - 0.6105006219370329 edge_1_10_0_0
   + 0.1352903705636961 edge_1_11_0_0 - 0.1094312417443752 edge_1_13_0_0
   - 0.6909677998366616 edge_1_14_0_0 - 1.352012751390883 edge_1_16_0_0
   - 1.074522126925533 edge_2_1_0_0 - 0.5957952929910603 edge_2_4_0_0
   - 0.629676869785012 edge_2_6_0_0 + 0.505365152923328 edge_3_1_0_0
   + 3.667378071283888 edge_3_2_0_0 + 0.5119866011701851 edge_3_4_0_0
   + 0.8089741545488401 edge_3_5_0_0 + 1.8410969912846 edge_3_6_0_0
   + 1.538338777574524 edge_3_7_0_0 + 1.493830602135154 edge_3_8_0_0
   + 0.3608717231692037 edge_3_9_0_0 + 0.644983128755013 edge_3_10_0_0
   + 1.440974891089531 edge_3_11_0_0 - 0.3696945655884012 edge_3_12_0_0
   + 0.7949288897146346 edge_3_13_0_0 - 0.7794125085354898 edge_3_14_0_0
   + 0.3841947003279166 edge_3_16_0_0 + 2.07438680617792 edge_3_17_0_0
   - 0.0349166636763768 edge_4_1_0_0 + 0.4613194143465258 edge_4_3_0_0
   + 1.112909209812278 edge_4_5_0_0 + 1.167560697758 edge_4_6_0_0
   + 0.3278009420208222 edge_4_7_0_0 + 0.2306602406598535 edge_4_8_0_0
   - 0.1175167171464881 edge_4_9_0_0 - 0.6117062538736933 edge_4_10_0_0
   - 1.359351202626871 edge_4_14_0_0 - 1.213940204421383 edge_4_16_0_0
   - 0.4993669759192406 edge_5_1_0_0 - 0.6979786737926204 edge_5_3_0_0
   + 0.8194741824473903 edge_5_4_0_0 + 1.358610517512 edge_5_6_0_0
   + 0.66206734147562 edge_5_7_0_0 + 0.3573091909834987 edge_5_8_0_0
   - 0.8610153993705814 edge_5_9_0_0 - 0.6098601174332584 edge_5_10_0_0
   - 0.3121790672076529 edge_5_11_0_0 - 1.047100163217778 edge_5_14_0_0
   - 0.4986862048413699 edge_6_1_0_0 + 0.8733925458445079 edge_6_2_0_0
   + 0.55532718795883 edge_6_3_0_0 + 3.2220972106939 edge_6_4_0_0
   + 3.234447628706 edge_6_5_0_0 + 0.7925182864336181 edge_6_6_0_0
   + 3.665579894008194 edge_6_7_0_0 + 1.6208255425941 edge_6_8_0_0
   + 0.78525526953 edge_6_9_0_0 + 1.994810737134681 edge_6_10_0_0
   + 1.4124481296832 edge_6_11_0_0 - 0.4304762627426642 edge_6_12_0_0
   + 0.8998672636046559 edge_6_13_0_0 - 0.7587330547849369 edge_6_14_0_0
   + 0.0215742022684268 edge_6_16_0_0 + 2.86587 edge_6_17_0_0
   + 0.2489197642940947 edge_7_1_0_0 + 0.68115133608458 edge_7_2_0_0
   + 0.27410380264512 edge_7_3_0_0 + 2.430981143291628 edge_7_4_0_0
   + 3.171360799405658 edge_7_5_0_0 + 3.2767396067912 edge_7_6_0_0
   + 2.805039370662035 edge_7_8_0_0 + 0.9730208651129001 edge_7_9_0_0
   + 1.082165652267183 edge_7_10_0_0 + 1.1463050916415 edge_7_11_0_0
   - 0.021379018037212 edge_7_12_0_0 + 0.063749912455785 edge_7_13_0_0
   + 0.1443091396250211 edge_7_14_0_0 - 0.84400524705344 edge_7_15_0_0
   + 0.21938697367356 edge_7_16_0_0 + 2.411218408594956 edge_7_17_0_0
   - 1.379962848182684 edge_8_1_0_0 - 1.931272647539184 edge_8_3_0_0
   - 1.100192971870764 edge_8_4_0_0 - 0.9183012775261693 edge_8_5_0_0
   - 0.614381123971706 edge_8_6_0_0 - 0.7483225045621689 edge_8_7_0_0
   - 0.2678803471115879 edge_8_9_0_0 - 0.1162265343678103 edge_8_10_0_0
   - 0.8695959131743758 edge_8_11_0_0 - 0.359248518575518 edge_9_1_0_0
   - 0.3785435327233427 edge_9_3_0_0 - 0.106898797813787 edge_9_4_0_0
   + 0.00888520330228783 edge_9_5_0_0 - 0.0422522562482015 edge_9_6_0_0
   - 0.044102618516948 edge_9_7_0_0 + 0.4902029991472385 edge_9_8_0_0
   + 0.0359835529993732 edge_9_9_0_0 + 2.005578731003313 edge_9_10_0_0
   + 0.5495986399095787 edge_9_11_0_0 + 0.023764964442571 edge_9_12_0_0
   - 0.2102332830422807 edge_9_13_0_0 + 1.282811384174593 edge_9_14_0_0
   + 0.00546833911652943 edge_9_15_0_0 + 0.81958029119455 edge_9_16_0_0
   + 0.4003600719315 edge_9_17_0_0 - 0.3430687965540807 edge_10_1_0_0
   - 0.2374419203859743 edge_10_2_0_0 - 0.4971041546020053 edge_10_3_0_0
   + 0.359234304106531 edge_10_4_0_0 + 0.4924397108748808 edge_10_5_0_0
   + 0.4139299699891634 edge_10_6_0_0 + 0.2827196640208 edge_10_7_0_0
   + 1.876660630306316 edge_10_8_0_0 + 3.221544733931109 edge_10_9_0_0
   + 2.128681299442948 edge_10_10_0_0 + 1.784856503507479 edge_10_11_0_0
   + 0.299118114553197 edge_10_12_0_0 + 1.407903973673265 edge_10_13_0_0
   + 0.3975868722572519 edge_10_14_0_0 + 0.0840143456164162 edge_10_15_0_0
   + 1.6951213748181 edge_10_16_0_0 + 1.693200501690932 edge_10_17_0_0
   - 0.7580288069601062 edge_11_9_0_0 - 0.6109909377656925 edge_11_10_0_0
   - 0.3050178812797964 edge_11_12_0_0 - 0.6658938356216453 edge_11_13_0_0
   - 1.767801339015929 edge_12_1_0_0 - 1.667348819205986 edge_12_3_0_0
   - 0.9563010613864324 edge_12_4_0_0 - 1.291296796732717 edge_12_6_0_0
   - 1.5503770338188 edge_12_7_0_0 - 0.59148103097767 edge_12_9_0_0
   - 0.8870085478045974 edge_12_10_0_0 + 0.4008456992659745 edge_12_11_0_0
   + 0.2482510405052687 edge_12_13_0_0 + 0.4222863948377498 edge_12_14_0_0
   + 0.6553016664355377 edge_12_16_0_0 + 0.5032544908832168 edge_12_17_0_0
   + 0.5783580901054037 edge_13_1_0_0 - 1.433716583166562 edge_13_3_0_0
   - 0.867072390370706 edge_13_6_0_0 - 1.476620423884769 edge_13_7_0_0
   + 0.4603892360207512 edge_13_8_0_0 - 0.2888802508161223 edge_13_9_0_0
   - 0.9890357444297244 edge_13_10_0_0 + 1.654286835509193 edge_13_11_0_0
   + 1.68202977431992 edge_13_12_0_0 + 0.2985260296234213 edge_13_14_0_0
   - 0.6570815290031303 edge_13_15_0_0 + 0.7030908198875938 edge_13_16_0_0
   + 0.23263641880596 edge_13_17_0_0 - 1.086805115594775 edge_14_1_0_0
   - 0.6344043022120941 edge_14_3_0_0 - 1.141853151020047 edge_14_4_0_0
   - 0.5532008199144001 edge_14_6_0_0 - 0.9904549439828999 edge_14_7_0_0
   - 0.6733870023770634 edge_14_8_0_0 - 0.1668158744924429 edge_14_9_0_0
   - 0.6897439139760723 edge_14_10_0_0 + 0.4281743572239937 edge_14_11_0_0
   + 2.01525485529916 edge_14_12_0_0 + 2.742667669313565 edge_14_13_0_0
   + 2.577207137428108 edge_14_15_0_0 + 1.422488477183676 edge_14_16_0_0
   + 0.8718114695688 edge_14_17_0_0 + 2.117503139319997 edge_15_14_0_0
   + 0.800264624314779 edge_15_16_0_0 - 0.31733992788416 edge_15_17_0_0
   - 1.38010474817471 edge_16_1_0_0 - 0.305329660917 edge_16_3_0_0
   + 0.0546263616108221 edge_16_4_0_0 - 0.3195124773440002 edge_16_5_0_0
   - 0.09712284228192 edge_16_6_0_0 + 0.058602724728048 edge_16_7_0_0
   + 0.2527343526612 edge_16_8_0_0 + 0.7106591209737 edge_16_9_0_0
   + 0.42944512765299 edge_16_10_0_0 + 1.2511784708024 edge_16_11_0_0
   + 1.35870776074 edge_16_12_0_0 + 1.6376708978532 edge_16_13_0_0
   + 3.544155719844044 edge_16_14_0_0 + 4.183641914261971 edge_16_15_0_0
   + 1.15009 edge_16_17_0_0 - 1.687584975147621 edge_17_9_0_0
   - 1.144723378536842 edge_17_14_0_0 - 0.950304632592 edge_17_15_0_0
   - 1.4188509230311 edge_17_16_0_0
Subject To
 one_parent_1: edge_0_1_0_0 + edge_2_1_0_0 + edge_3_1_0_0 + edge_4_1_0_0
   + edge_5_1_0_0 + edge_6_1_0_0 + edge_7_1_0_0 + edge_8_1_0_0
   + edge_9_1_0_0 + edge_10_1_0_0 + edge_12_1_0_0 + edge_13_1_0_0
   + edge_14_1_0_0 + edge_16_1_0_0 = 1
 consume_one_flow_unit_1: flow_0_1_0_0 - flow_1_2_0_0 - flow_1_3_0_0
   - flow_1_4_0_0 - flow_1_6_0_0 - flow_1_7_0_0 - flow_1_8_0_0
   - flow_1_10_0_0 - flow_1_11_0_0 - flow_1_13_0_0 - flow_1_14_0_0
   - flow_1_16_0_0 + flow_2_1_0_0 + flow_3_1_0_0 + flow_4_1_0_0
   + flow_5_1_0_0 + flow_6_1_0_0 + flow_7_1_0_0 + flow_8_1_0_0
   + flow_9_1_0_0 + flow_10_1_0_0 + flow_12_1_0_0 + flow_13_1_0_0
   + flow_14_1_0_0 + flow_16_1_0_0 = 1
 one_parent_2: edge_1_2_0_0 + edge_3_2_0_0 + edge_6_2_0_0 + edge_7_2_0_0
   + edge_10_2_0_0 = 1
 consume_one_flow_unit_2: flow_1_2_0_0 - flow_2_1_0_0 - flow_2_4_0_0
   - flow_2_6_0_0 + flow_3_2_0_0 + flow_6_2_0_0 + flow_7_2_0_0
   + flow_10_2_0_0 = 1
 one_parent_3: edge_0_3_0_0 + edge_1_3_0_0 + edge_4_3_0_0 + edge_5_3_0_0
   + edge_6_3_0_0 + edge_7_3_0_0 + edge_8_3_0_0 + edge_9_3_0_0
   + edge_10_3_0_0 + edge_12_3_0_0 + edge_13_3_0_0 + edge_14_3_0_0
   + edge_16_3_0_0 = 1
 consume_one_flow_unit_3: flow_0_3_0_0 + flow_1_3_0_0 - flow_3_1_0_0
   - flow_3_2_0_0 - flow_3_4_0_0 - flow_3_5_0_0 - flow_3_6_0_0
   - flow_3_7_0_0 - flow_3_8_0_0 - flow_3_9_0_0 - flow_3_10_0_0
   - flow_3_11_0_0 - flow_3_12_0_0 - flow_3_13_0_0 - flow_3_14_0_0
   - flow_3_16_0_0 - flow_3_17_0_0 + flow_4_3_0_0 + flow_5_3_0_0
   + flow_6_3_0_0 + flow_7_3_0_0 + flow_8_3_0_0 + flow_9_3_0_0
   + flow_10_3_0_0 + flow_12_3_0_0 + flow_13_3_0_0 + flow_14_3_0_0
   + flow_16_3_0_0 = 1
 one_parent_4: edge_0_4_0_0 + edge_1_4_0_0 + edge_2_4_0_0 + edge_3_4_0_0
   + edge_5_4_0_0 + edge_6_4_0_0 + edge_7_4_0_0 + edge_8_4_0_0
   + edge_9_4_0_0 + edge_10_4_0_0 + edge_12_4_0_0 + edge_14_4_0_0
   + edge_16_4_0_0 = 1
 consume_one_flow_unit_4: flow_0_4_0_0 + flow_1_4_0_0 + flow_2_4_0_0
   + flow_3_4_0_0 - flow_4_1_0_0 - flow_4_3_0_0 - flow_4_5_0_0
   - flow_4_6_0_0 - flow_4_7_0_0 - flow_4_8_0_0 - flow_4_9_0_0
   - flow_4_10_0_0 - flow_4_14_0_0 - flow_4_16_0_0 + flow_5_4_0_0
   + flow_6_4_0_0 + flow_7_4_0_0 + flow_8_4_0_0 + flow_9_4_0_0
   + flow_10_4_0_0 + flow_12_4_0_0 + flow_14_4_0_0 + flow_16_4_0_0 = 1
 one_parent_5: edge_0_5_0_0 + edge_3_5_0_0 + edge_4_5_0_0 + edge_6_5_0_0
   + edge_7_5_0_0 + edge_8_5_0_0 + edge_9_5_0_0 + edge_10_5_0_0
   + edge_16_5_0_0 = 1
 consume_one_flow_unit_5: flow_0_5_0_0 + flow_3_5_0_0 + flow_4_5_0_0
   - flow_5_1_0_0 - flow_5_3_0_0 - flow_5_4_0_0 - flow_5_6_0_0
   - flow_5_7_0_0 - flow_5_8_0_0 - flow_5_9_0_0 - flow_5_10_0_0
   - flow_5_11_0_0 - flow_5_14_0_0 + flow_6_5_0_0 + flow_7_5_0_0
   + flow_8_5_0_0 + flow_9_5_0_0 + flow_10_5_0_0 + flow_16_5_0_0 = 1
 one_parent_6: edge_0_6_0_0 + edge_1_6_0_0 + edge_2_6_0_0 + edge_3_6_0_0
   + edge_4_6_0_0 + edge_5_6_0_0 + edge_6_6_0_0 + edge_7_6_0_0
   + edge_8_6_0_0 + edge_9_6_0_0 + edge_10_6_0_0 + edge_12_6_0_0
   + edge_13_6_0_0 + edge_14_6_0_0 + edge_16_6_0_0 = 1
 consume_one_flow_unit_6: flow_0_6_0_0 + flow_1_6_0_0 + flow_2_6_0_0
   + flow_3_6_0_0 + flow_4_6_0_0 + flow_5_6_0_0 - flow_6_1_0_0
   - flow_6_2_0_0 - flow_6_3_0_0 - flow_6_4_0_0 - flow_6_5_0_0
   - flow_6_7_0_0 - flow_6_8_0_0 - flow_6_9_0_0 - flow_6_10_0_0
   - flow_6_11_0_0 - flow_6_12_0_0 - flow_6_13_0_0 - flow_6_14_0_0
   - flow_6_16_0_0 - flow_6_17_0_0 + flow_7_6_0_0 + flow_8_6_0_0
   + flow_9_6_0_0 + flow_10_6_0_0 + flow_12_6_0_0 + flow_13_6_0_0
   + flow_14_6_0_0 + flow_16_6_0_0 = 1
 one_parent_7: edge_0_7_0_0 + edge_1_7_0_0 + edge_3_7_0_0 + edge_4_7_0_0
   + edge_5_7_0_0 + edge_6_7_0_0 + edge_8_7_0_0 + edge_9_7_0_0
   + edge_10_7_0_0 + edge_12_7_0_0 + edge_13_7_0_0 + edge_14_7_0_0
   + edge_16_7_0_0 = 1
 consume_one_flow_unit_7: flow_0_7_0_0 + flow_1_7_0_0 + flow_3_7_0_0
   + flow_4_7_0_0 + flow_5_7_0_0 + flow_6_7_0_0 - flow_7_1_0_0
   - flow_7_2_0_0 - flow_7_3_0_0 - flow_7_4_0_0 - flow_7_5_0_0
   - flow_7_6_0_0 - flow_7_8_0_0 - flow_7_9_0_0 - flow_7_10_0_0
   - flow_7_11_0_0 - flow_7_12_0_0 - flow_7_13_0_0 - flow_7_14_0_0
   - flow_7_15_0_0 - flow_7_16_0_0 - flow_7_17_0_0 + flow_8_7_0_0
   + flow_9_7_0_0 + flow_10_7_0_0 + flow_12_7_0_0 + flow_13_7_0_0
   + flow_14_7_0_0 + flow_16_7_0_0 = 1
 one_parent_8: edge_0_8_0_0 + edge_1_8_0_0 + edge_3_8_0_0 + edge_4_8_0_0
   + edge_5_8_0_0 + edge_6_8_0_0 + edge_7_8_0_0 + edge_9_8_0_0
   + edge_10_8_0_0 + edge_13_8_0_0 + edge_14_8_0_0 + edge_16_8_0_0 = 1
 consume_one_flow_unit_8: flow_0_8_0_0 + flow_1_8_0_0 + flow_3_8_0_0
   + flow_4_8_0_0 + flow_5_8_0_0 + flow_6_8_0_0 + flow_7_8_0_0
   - flow_8_1_0_0 - flow_8_3_0_0 - flow_8_4_0_0 - flow_8_5_0_0
   - flow_8_6_0_0 - flow_8_7_0_0 - flow_8_9_0_0 - flow_8_10_0_0
   - flow_8_11_0_0 + flow_9_8_0_0 + flow_10_8_0_0 + flow_13_8_0_0
   + flow_14_8_0_0 + flow_16_8_0_0 = 1
 one_parent_9: edge_0_9_0_0 + edge_3_9_0_0 + edge_4_9_0_0 + edge_5_9_0_0
   + edge_6_9_0_0 + edge_7_9_0_0 + edge_8_9_0_0 + edge_9_9_0_0
   + edge_10_9_0_0 + edge_11_9_0_0 + edge_12_9_0_0 + edge_13_9_0_0
   + edge_14_9_0_0 + edge_16_9_0_0 + edge_17_9_0_0 = 1
 consume_one_flow_unit_9: flow_0_9_0_0 + flow_3_9_0_0 + flow_4_9_0_0
   + flow_5_9_0_0 + flow_6_9_0_0 + flow_7_9_0_0 + flow_8_9_0_0
   - flow_9_1_0_0 - flow_9_3_0_0 - flow_9_4_0_0 - flow_9_5_0_0
   - flow_9_6_0_0 - flow_9_7_0_0 - flow_9_8_0_0 - flow_9_10_0_0
   - flow_9_11_0_0 - flow_9_12_0_0 - flow_9_13_0_0 - flow_9_14_0_0
   - flow_9_15_0_0 - flow_9_16_0_0 - flow_9_17_0_0 + flow_10_9_0_0
   + flow_11_9_0_0 + flow_12_9_0_0 + flow_13_9_0_0 + flow_14_9_0_0
   + flow_16_9_0_0 + flow_17_9_0_0 = 1
 one_parent_10: edge_0_10_0_0 + edge_1_10_0_0 + edge_3_10_0_0
   + edge_4_10_0_0 + edge_5_10_0_0 + edge_6_10_0_0 + edge_7_10_0_0
   + edge_8_10_0_0 + edge_9_10_0_0 + edge_10_10_0_0 + edge_11_10_0_0
   + edge_12_10_0_0 + edge_13_10_0_0 + edge_14_10_0_0 + edge_16_10_0_0 = 1
 consume_one_flow_unit_10: flow_0_10_0_0 + flow_1_10_0_0 + flow_3_10_0_0
   + flow_4_10_0_0 + flow_5_10_0_0 + flow_6_10_0_0 + flow_7_10_0_0
   + flow_8_10_0_0 + flow_9_10_0_0 - flow_10_1_0_0 - flow_10_2_0_0
   - flow_10_3_0_0 - flow_10_4_0_0 - flow_10_5_0_0 - flow_10_6_0_0
   - flow_10_7_0_0 - flow_10_8_0_0 - flow_10_9_0_0 - flow_10_11_0_0
   - flow_10_12_0_0 - flow_10_13_0_0 - flow_10_14_0_0 - flow_10_15_0_0
   - flow_10_16_0_0 - flow_10_17_0_0 + flow_11_10_0_0 + flow_12_10_0_0
   + flow_13_10_0_0 + flow_14_10_0_0 + flow_16_10_0_0 = 1
 one_parent_11: edge_1_11_0_0 + edge_3_11_0_0 + edge_5_11_0_0
   + edge_6_11_0_0 + edge_7_11_0_0 + edge_8_11_0_0 + edge_9_11_0_0
   + edge_10_11_0_0 + edge_12_11_0_0 + edge_13_11_0_0 + edge_14_11_0_0
   + edge_16_11_0_0 = 1
 consume_one_flow_unit_11: flow_1_11_0_0 + flow_3_11_0_0 + flow_5_11_0_0
   + flow_6_11_0_0 + flow_7_11_0_0 + flow_8_11_0_0 + flow_9_11_0_0
   + flow_10_11_0_0 - flow_11_9_0_0 - flow_11_10_0_0 - flow_11_12_0_0
   - flow_11_13_0_0 + flow_12_11_0_0 + flow_13_11_0_0 + flow_14_11_0_0
   + flow_16_11_0_0 = 1
 one_parent_12: edge_0_12_0_0 + edge_3_12_0_0 + edge_6_12_0_0
   + edge_7_12_0_0 + edge_9_12_0_0 + edge_10_12_0_0 + edge_11_12_0_0
   + edge_13_12_0_0 + edge_14_12_0_0 + edge_16_12_0_0 = 1
 consume_one_flow_unit_12: flow_0_12_0_0 + flow_3_12_0_0 + flow_6_12_0_0
   + flow_7_12_0_0 + flow_9_12_0_0 + flow_10_12_0_0 + flow_11_12_0_0
   - flow_12_1_0_0 - flow_12_3_0_0 - flow_12_4_0_0 - flow_12_6_0_0
   - flow_12_7_0_0 - flow_12_9_0_0 - flow_12_10_0_0 - flow_12_11_0_0
   - flow_12_13_0_0 - flow_12_14_0_0 - flow_12_16_0_0 - flow_12_17_0_0
   + flow_13_12_0_0 + flow_14_12_0_0 + flow_16_12_0_0 = 1
 one_parent_13: edge_0_13_0_0 + edge_1_13_0_0 + edge_3_13_0_0
   + edge_6_13_0_0 + edge_7_13_0_0 + edge_9_13_0_0 + edge_10_13_0_0
   + edge_11_13_0_0 + edge_12_13_0_0 + edge_14_13_0_0 + edge_16_13_0_0 = 1
 consume_one_flow_unit_13: flow_0_13_0_0 + flow_1_13_0_0 + flow_3_13_0_0
   + flow_6_13_0_0 + flow_7_13_0_0 + flow_9_13_0_0 + flow_10_13_0_0
   + flow_11_13_0_0 + flow_12_13_0_0 - flow_13_1_0_0 - flow_13_3_0_0
   - flow_13_6_0_0 - flow_13_7_0_0 - flow_13_8_0_0 - flow_13_9_0_0
   - flow_13_10_0_0 - flow_13_11_0_0 - flow_13_12_0_0 - flow_13_14_0_0
   - flow_13_15_0_0 - flow_13_16_0_0 - flow_13_17_0_0 + flow_14_13_0_0
   + flow_16_13_0_0 = 1
 one_parent_14: edge_0_14_0_0 + edge_1_14_0_0 + edge_3_14_0_0
   + edge_4_14_0_0 + edge_5_14_0_0 + edge_6_14_0_0 + edge_7_14_0_0
   + edge_9_14_0_0 + edge_10_14_0_0 + edge_12_14_0_0 + edge_13_14_0_0
   + edge_15_14_0_0 + edge_16_14_0_0 + edge_17_14_0_0 = 1
 consume_one_flow_unit_14: flow_0_14_0_0 + flow_1_14_0_0 + flow_3_14_0_0
   + flow_4_14_0_0 + flow_5_14_0_0 + flow_6_14_0_0 + flow_7_14_0_0
   + flow_9_14_0_0 + flow_10_14_0_0 + flow_12_14_0_0 + flow_13_14_0_0
   - flow_14_1_0_0 - flow_14_3_0_0 - flow_14_4_0_0 - flow_14_6_0_0
   - flow_14_7_0_0 - flow_14_8_0_0 - flow_14_9_0_0 - flow_14_10_0_0
   - flow_14_11_0_0 - flow_14_12_0_0 - flow_14_13_0_0 - flow_14_15_0_0
   - flow_14_16_0_0 - flow_14_17_0_0 + flow_15_14_0_0 + flow_16_14_0_0
   + flow_17_14_0_0 = 1
 one_parent_15: edge_7_15_0_0 + edge_9_15_0_0 + edge_10_15_0_0
   + edge_13_15_0_0 + edge_14_15_0_0 + edge_16_15_0_0 + edge_17_15_0_0 = 1
 consume_one_flow_unit_15: flow_7_15_0_0 + flow_9_15_0_0 + flow_10_15_0_0
   + flow_13_15_0_0 + flow_14_15_0_0 - flow_15_14_0_0 - flow_15_16_0_0
   - flow_15_17_0_0 + flow_16_15_0_0 + flow_17_15_0_0 = 1
 one_parent_16: edge_0_16_0_0 + edge_1_16_0_0 + edge_3_16_0_0
   + edge_4_16_0_0 + edge_6_16_0_0 + edge_7_16_0_0 + edge_9_16_0_0
   + edge_10_16_0_0 + edge_12_16_0_0 + edge_13_16_0_0 + edge_14_16_0_0
   + edge_15_16_0_0 + edge_17_16_0_0 = 1
 consume_one_flow_unit_16: flow_0_16_0_0 + flow_1_16_0_0 + flow_3_16_0_0
   + flow_4_16_0_0 + flow_6_16_0_0 + flow_7_16_0_0 + flow_9_16_0_0
   + flow_10_16_0_0 + flow_12_16_0_0 + flow_13_16_0_0 + flow_14_16_0_0
   + flow_15_16_0_0 - flow_16_1_0_0 - flow_16_3_0_0 - flow_16_4_0_0
   - flow_16_5_0_0 - flow_16_6_0_0 - flow_16_7_0_0 - flow_16_8_0_0
   - flow_16_9_0_0 - flow_16_10_0_0 - flow_16_11_0_0 - flow_16_12_0_0
   - flow_16_13_0_0 - flow_16_14_0_0 - flow_16_15_0_0 - flow_16_17_0_0
   + flow_17_16_0_0 = 1
 one_parent_17: edge_3_17_0_0 + edge_6_17_0_0 + edge_7_17_0_0
   + edge_9_17_0_0 + edge_10_17_0_0 + edge_12_17_0_0 + edge_13_17_0_0
   + edge_14_17_0_0 + edge_15_17_0_0 + edge_16_17_0_0 = 1
 consume_one_flow_unit_17: flow_3_17_0_0 + flow_6_17_0_0 + flow_7_17_0_0
   + flow_9_17_0_0 + flow_10_17_0_0 + flow_12_17_0_0 + flow_13_17_0_0
   + flow_14_17_0_0 + flow_15_17_0_0 + flow_16_17_0_0 - flow_17_9_0_0
   - flow_17_14_0_0 - flow_17_15_0_0 - flow_17_16_0_0 = 1
 root_flow: flow_0_1_0_0 + flow_0_3_0_0 + flow_0_4_0_0 + flow_0_5_0_0
   + flow_0_6_0_0 + flow_0_7_0_0 + flow_0_8_0_0 + flow_0_9_0_0
   + flow_0_10_0_0 + flow_0_12_0_0 + flow_0_13_0_0 + flow_0_14_0_0
   + flow_0_16_0_0 = 17
 inactive_no_flow_0_1_0_0: flow_0_1_0_0 - 1000 edge_0_1_0_0 <= 0
 inactive_no_flow_0_3_0_0: flow_0_3_0_0 - 1000 edge_0_3_0_0 <= 0
 inactive_no_flow_0_4_0_0: flow_0_4_0_0 - 1000 edge_0_4_0_0 <= 0
 inactive_no_flow_0_5_0_0: flow_0_5_0_0 - 1000 edge_0_5_0_0 <= 0
 inactive_no_flow_0_6_0_0: flow_0_6_0_0 - 1000 edge_0_6_0_0 <= 0
 inactive_no_flow_0_7_0_0: flow_0_7_0_0 - 1000 edge_0_7_0_0 <= 0
 inactive_no_flow_0_8_0_0: flow_0_8_0_0 - 1000 edge_0_8_0_0 <= 0
 inactive_no_flow_0_9_0_0: flow_0_9_0_0 - 1000 edge_0_9_0_0 <= 0
 inactive_no_flow_0_10_0_0: flow_0_10_0_0 - 1000 edge_0_10_0_0 <= 0
 inactive_no_flow_0_12_0_0: flow_0_12_0_0 - 1000 edge_0_12_0_0 <= 0
 inactive_no_flow_0_13_0_0: flow_0_13_0_0 - 1000 edge_0_13_0_0 <= 0
 inactive_no_flow_0_14_0_0: flow_0_14_0_0 - 1000 edge_0_14_0_0 <= 0
 inactive_no_flow_0_16_0_0: flow_0_16_0_0 - 1000 edge_0_16_0_0 <= 0
 inactive_no_flow_1_2_0_0: flow_1_2_0_0 - 1000 edge_1_2_0_0 <= 0
 inactive_no_flow_1_3_0_0: flow_1_3_0_0 - 1000 edge_1_3_0_0 <= 0
 inactive_no_flow_1_4_0_0: flow_1_4_0_0 - 1000 edge_1_4_0_0 <= 0
 inactive_no_flow_1_6_0_0: flow_1_6_0_0 - 1000 edge_1_6_0_0 <= 0
 inactive_no_flow_1_7_0_0: flow_1_7_0_0 - 1000 edge_1_7_0_0 <= 0
 inactive_no_flow_1_8_0_0: flow_1_8_0_0 - 1000 edge_1_8_0_0 <= 0
 inactive_no_flow_1_10_0_0: flow_1_10_0_0 - 1000 edge_1_10_0_0 <= 0
 inactive_no_flow_1_11_0_0: flow_1_11_0_0 - 1000 edge_1_11_0_0 <= 0
 inactive_no_flow_1_13_0_0: flow_1_13_0_0 - 1000 edge_1_13_0_0 <= 0
 inactive_no_flow_1_14_0_0: flow_1_14_0_0 - 1000 edge_1_14_0_0 <= 0
 inactive_no_flow_1_16_0_0: flow_1_16_0_0 - 1000 edge_1_16_0_0 <= 0
 inactive_no_flow_2_1_0_0: flow_2_1_0_0 - 1000 edge_2_1_0_0 <= 0
 inactive_no_flow_2_4_0_0: flow_2_4_0_0 - 1000 edge_2_4_0_0 <= 0
 inactive_no_flow_2_6_0_0: flow_2_6_0_0 - 1000 edge_2_6_0_0 <= 0
 inactive_no_flow_3_1_0_0: flow_3_1_0_0 - 1000 edge_3_1_0_0 <= 0
 inactive_no_flow_3_2_0_0: flow_3_2_0_0 - 1000 edge_3_2_0_0 <= 0
 inactive_no_flow_3_4_0_0: flow_3_4_0_0 - 1000 edge_3_4_0_0 <= 0
 inactive_no_flow_3_5_0_0: flow_3_5_0_0 - 1000 edge_3_5_0_0 <= 0
 inactive_no_flow_3_6_0_0: flow_3_6_0_0 - 1000 edge_3_6_0_0 <= 0
 inactive_no_flow_3_7_0_0: flow_3_7_0_0 - 1000 edge_3_7_0_0 <= 0
 inactive_no_flow_3_8_0_0: flow_3_8_0_0 - 1000 edge_3_8_0_0 <= 0
 inactive_no_flow_3_9_0_0: flow_3_9_0_0 - 1000 edge_3_9_0_0 <= 0
 inactive_no_flow_3_10_0_0: flow_3_10_0_0 - 1000 edge_3_10_0_0 <= 0
 inactive_no_flow_3_11_0_0: flow_3_11_0_0 - 1000 edge_3_11_0_0 <= 0
 inactive_no_flow_3_12_0_0: flow_3_12_0_0 - 1000 edge_3_12_0_0 <= 0
 inactive_no_flow_3_13_0_0: flow_3_13_0_0 - 1000 edge_3_13_0_0 <= 0
 inactive_no_flow_3_14_0_0: flow_3_14_0_0 - 1000 edge_3_14_0_0 <= 0
 inactive_no_flow_3_16_0_0: flow_3_16_0_0 - 1000 edge_3_16_0_0 <= 0
 inactive_no_flow_3_17_0_0: flow_3_17_0_0 - 1000 edge_3_17_0_0 <= 0
 inactive_no_flow_4_1_0_0: flow_4_1_0_0 - 1000 edge_4_1_0_0 <= 0
 inactive_no_flow_4_3_0_0: flow_4_3_0_0 - 1000 edge_4_3_0_0 <= 0
 inactive_no_flow_4_5_0_0: flow_4_5_0_0 - 1000 edge_4_5_0_0 <= 0
 inactive_no_flow_4_6_0_0: flow_4_6_0_0 - 1000 edge_4_6_0_0 <= 0
 inactive_no_flow_4_7_0_0: flow_4_7_0_0 - 1000 edge_4_7_0_0 <= 0
 inactive_no_flow_4_8_0_0: flow_4_8_0_0 - 1000 edge_4_8_0_0 <= 0
 inactive_no_flow_4_9_0_0: flow_4_9_0_0 - 1000 edge_4_9_0_0 <= 0
 inactive_no_flow_4_10_0_0: flow_4_10_0_0 - 1000 edge_4_10_0_0 <= 0
 inactive_no_flow_4_14_0_0: flow_4_14_0_0 - 1000 edge_4_14_0_0 <= 0
 inactive_no_flow_4_16_0_0: flow_4_16_0_0 - 1000 edge_4_16_0_0 <= 0
 inactive_no_flow_5_1_0_0: flow_5_1_0_0 - 1000 edge_5_1_0_0 <= 0
 inactive_no_flow_5_3_0_0: flow_5_3_0_0 - 1000 edge_5_3_0_0 <= 0
 inactive_no_flow_5_4_0_0: flow_5_4_0_0 - 1000 edge_5_4_0_0 <= 0
 inactive_no_flow_5_6_0_0: flow_5_6_0_0 - 1000 edge_5_6_0_0 <= 0
 inactive_no_flow_5_7_0_0: flow_5_7_0_0 - 1000 edge_5_7_0_0 <= 0
 inactive_no_flow_5_8_0_0: flow_5_8_0_0 - 1000 edge_5_8_0_0 <= 0
 inactive_no_flow_5_9_0_0: flow_5_9_0_0 - 1000 edge_5_9_0_0 <= 0
 inactive_no_flow_5_10_0_0: flow_5_10_0_0 - 1000 edge_5_10_0_0 <= 0
 inactive_no_flow_5_11_0_0: flow_5_11_0_0 - 1000 edge_5_11_0_0 <= 0
 inactive_no_flow_5_14_0_0: flow_5_14_0_0 - 1000 edge_5_14_0_0 <= 0
 inactive_no_flow_6_1_0_0: flow_6_1_0_0 - 1000 edge_6_1_0_0 <= 0
 inactive_no_flow_6_2_0_0: flow_6_2_0_0 - 1000 edge_6_2_0_0 <= 0
 inactive_no_flow_6_3_0_0: flow_6_3_0_0 - 1000 edge_6_3_0_0 <= 0
 inactive_no_flow_6_4_0_0: flow_6_4_0_0 - 1000 edge_6_4_0_0 <= 0
 inactive_no_flow_6_5_0_0: flow_6_5_0_0 - 1000 edge_6_5_0_0 <= 0
 inactive_no_flow_6_6_0_0: flow_6_6_0_0 - 1000 edge_6_6_0_0 <= 0
 inactive_no_flow_6_7_0_0: flow_6_7_0_0 - 1000 edge_6_7_0_0 <= 0
 inactive_no_flow_6_8_0_0: flow_6_8_0_0 - 1000 edge_6_8_0_0 <= 0
 inactive_no_flow_6_9_0_0: flow_6_9_0_0 - 1000 edge_6_9_0_0 <= 0
 inactive_no_flow_6_10_0_0: flow_6_10_0_0 - 1000 edge_6_10_0_0 <= 0
 inactive_no_flow_6_11_0_0: flow_6_11_0_0 - 1000 edge_6_11_0_0 <= 0
 inactive_no_flow_6_12_0_0: flow_6_12_0_0 - 1000 edge_6_12_0_0 <= 0
 inactive_no_flow_6_13_0_0: flow_6_13_0_0 - 1000 edge_6_13_0_0 <= 0
 inactive_no_flow_6_14_0_0: flow_6_14_0_0 - 1000 edge_6_14_0_0 <= 0
 inactive_no_flow_6_16_0_0: flow_6_16_0_0 - 1000 edge_6_16_0_0 <= 0
 inactive_no_flow_6_17_0_0: flow_6_17_0_0 - 1000 edge_6_17_0_0 <= 0
 inactive_no_flow_7_1_0_0: flow_7_1_0_0 - 1000 edge_7_1_0_0 <= 0
 inactive_no_flow_7_2_0_0: flow_7_2_0_0 - 1000 edge_7_2_0_0 <= 0
 inactive_no_flow_7_3_0_0: flow_7_3_0_0 - 1000 edge_7_3_0_0 <= 0
 inactive_no_flow_7_4_0_0: flow_7_4_0_0 - 1000 edge_7_4_0_0 <= 0
 inactive_no_flow_7_5_0_0: flow_7_5_0_0 - 1000 edge_7_5_0_0 <= 0
 inactive_no_flow_7_6_0_0: flow_7_6_0_0 - 1000 edge_7_6_0_0 <= 0
 inactive_no_flow_7_8_0_0: flow_7_8_0_0 - 1000 edge_7_8_0_0 <= 0
 inactive_no_flow_7_9_0_0: flow_7_9_0_0 - 1000 edge_7_9_0_0 <= 0
 inactive_no_flow_7_10_0_0: flow_7_10_0_0 - 1000 edge_7_10_0_0 <= 0
 inactive_no_flow_7_11_0_0: flow_7_11_0_0 - 1000 edge_7_11_0_0 <= 0
 inactive_no_flow_7_12_0_0: flow_7_12_0_0 - 1000 edge_7_12_0_0 <= 0
 inactive_no_flow_7_13_0_0: flow_7_13_0_0 - 1000 edge_7_13_0_0 <= 0
 inactive_no_flow_7_14_0_0: flow_7_14_0_0 - 1000 edge_7_14_0_0 <= 0
 inactive_no_flow_7_15_0_0: flow_7_15_0_0 - 1000 edge_7_15_0_0 <= 0
 inactive_no_flow_7_16_0_0: flow_7_16_0_0 - 1000 edge_7_16_0_0 <= 0
 inactive_no_flow_7_17_0_0: flow_7_17_0_0 - 1000 edge_7_17_0_0 <= 0
 inactive_no_flow_8_1_0_0: flow_8_1_0_0 - 1000 edge_8_1_0_0 <= 0
 inactive_no_flow_8_3_0_0: flow_8_3_0_0 - 1000 edge_8_3_0_0 <= 0
 inactive_no_flow_8_4_0_0: flow_8_4_0_0 - 1000 edge_8_4_0_0 <= 0
 inactive_no_flow_8_5_0_0: flow_8_5_0_0 - 1000 edge_8_5_0_0 <= 0
 inactive_no_flow_8_6_0_0: flow_8_6_0_0 - 1000 edge_8_6_0_0 <= 0
 inactive_no_flow_8_7_0_0: flow_8_7_0_0 - 1000 edge_8_7_0_0 <= 0
 inactive_no_flow_8_9_0_0: flow_8_9_0_0 - 1000 edge_8_9_0_0 <= 0
 inactive_no_flow_8_10_0_0: flow_8_10_0_0 - 1000 edge_8_10_0_0 <= 0
 inactive_no_flow_8_11_0_0: flow_8_11_0_0 - 1000 edge_8_11_0_0 <= 0
 inactive_no_flow_9_1_0_0: flow_9_1_0_0 - 1000 edge_9_1_0_0 <= 0
 inactive_no_flow_9_3_0_0: flow_9_3_0_0 - 1000 edge_9_3_0_0 <= 0
 inactive_no_flow_9_4_0_0: flow_9_4_0_0 - 1000 edge_9_4_0_0 <= 0
 inactive_no_flow_9_5_0_0: flow_9_5_0_0 - 1000 edge_9_5_0_0 <= 0
 inactive_no_flow_9_6_0_0: flow_9_6_0_0 - 1000 edge_9_6_0_0 <= 0
 inactive_no_flow_9_7_0_0: flow_9_7_0_0 - 1000 edge_9_7_0_0 <= 0
 inactive_no_flow_9_8_0_0: flow_9_8_0_0 - 1000 edge_9_8_0_0 <= 0
 inactive_no_flow_9_9_0_0: flow_9_9_0_0 - 1000 edge_9_9_0_0 <= 0
 inactive_no_flow_9_10_0_0: flow_9_10_0_0 - 1000 edge_9_10_0_0 <= 0
 inactive_no_flow_9_11_0_0: flow_9_11_0_0 - 1000 edge_9_11_0_0 <= 0
 inactive_no_flow_9_12_0_0: flow_9_12_0_0 - 1000 edge_9_12_0_0 <= 0
 inactive_no_flow_9_13_0_0: flow_9_13_0_0 - 1000 edge_9_13_0_0 <= 0
 inactive_no_flow_9_14_0_0: flow_9_14_0_0 - 1000 edge_9_14_0_0 <= 0
 inactive_no_flow_9_15_0_0: flow_9_15_0_0 - 1000 edge_9_15_0_0 <= 0
 inactive_no_flow_9_16_0_0: flow_9_16_0_0 - 1000 edge_9_16_0_0 <= 0
 inactive_no_flow_9_17_0_0: flow_9_17_0_0 - 1000 edge_9_17_0_0 <= 0
 inactive_no_flow_10_1_0_0: flow_10_1_0_0 - 1000 edge_10_1_0_0 <= 0
 inactive_no_flow_10_2_0_0: flow_10_2_0_0 - 1000 edge_10_2_0_0 <= 0
 inactive_no_flow_10_3_0_0: flow_10_3_0_0 - 1000 edge_10_3_0_0 <= 0
 inactive_no_flow_10_4_0_0: flow_10_4_0_0 - 1000 edge_10_4_0_0 <= 0
 inactive_no_flow_10_5_0_0: flow_10_5_0_0 - 1000 edge_10_5_0_0 <= 0
 inactive_no_flow_10_6_0_0: flow_10_6_0_0 - 1000 edge_10_6_0_0 <= 0
 inactive_no_flow_10_7_0_0: flow_10_7_0_0 - 1000 edge_10_7_0_0 <= 0
 inactive_no_flow_10_8_0_0: flow_10_8_0_0 - 1000 edge_10_8_0_0 <= 0
 inactive_no_flow_10_9_0_0: flow_10_9_0_0 - 1000 edge_10_9_0_0 <= 0
 inactive_no_flow_10_10_0_0: flow_10_10_0_0 - 1000 edge_10_10_0_0 <= 0
 inactive_no_flow_10_11_0_0: flow_10_11_0_0 - 1000 edge_10_11_0_0 <= 0
 inactive_no_flow_10_12_0_0: flow_10_12_0_0 - 1000 edge_10_12_0_0 <= 0
 inactive_no_flow_10_13_0_0: flow_10_13_0_0 - 1000 edge_10_13_0_0 <= 0
 inactive_no_flow_10_14_0_0: flow_10_14_0_0 - 1000 edge_10_14_0_0 <= 0
 inactive_no_flow_10_15_0_0: flow_10_15_0_0 - 1000 edge_10_15_0_0 <= 0
 inactive_no_flow_10_16_0_0: flow_10_16_0_0 - 1000 edge_10_16_0_0 <= 0
 inactive_no_flow_10_17_0_0: flow_10_17_0_0 - 1000 edge_10_17_0_0 <= 0
 inactive_no_flow_11_9_0_0: flow_11_9_0_0 - 1000 edge_11_9_0_0 <= 0
 inactive_no_flow_11_10_0_0: flow_11_10_0_0 - 1000 edge_11_10_0_0 <= 0
 inactive_no_flow_11_12_0_0: flow_11_12_0_0 - 1000 edge_11_12_0_0 <= 0
 inactive_no_flow_11_13_0_0: flow_11_13_0_0 - 1000 edge_11_13_0_0 <= 0
 inactive_no_flow_12_1_0_0: flow_12_1_0_0 - 1000 edge_12_1_0_0 <= 0
 inactive_no_flow_12_3_0_0: flow_12_3_0_0 - 1000 edge_12_3_0_0 <= 0
 inactive_no_flow_12_4_0_0: flow_12_4_0_0 - 1000 edge_12_4_0_0 <= 0
 inactive_no_flow_12_6_0_0: flow_12_6_0_0 - 1000 edge_12_6_0_0 <= 0
 inactive_no_flow_12_7_0_0: flow_12_7_0_0 - 1000 edge_12_7_0_0 <= 0
 inactive_no_flow_12_9_0_0: flow_12_9_0_0 - 1000 edge_12_9_0_0 <= 0
 inactive_no_flow_12_10_0_0: flow_12_10_0_0 - 1000 edge_12_10_0_0 <= 0
 inactive_no_flow_12_11_0_0: flow_12_11_0_0 - 1000 edge_12_11_0_0 <= 0
 inactive_no_flow_12_13_0_0: flow_12_13_0_0 - 1000 edge_12_13_0_0 <= 0
 inactive_no_flow_12_14_0_0: flow_12_14_0_0 - 1000 edge_12_14_0_0 <= 0
 inactive_no_flow_12_16_0_0: flow_12_16_0_0 - 1000 edge_12_16_0_0 <= 0
 inactive_no_flow_12_17_0_0: flow_12_17_0_0 - 1000 edge_12_17_0_0 <= 0
 inactive_no_flow_13_1_0_0: flow_13_1_0_0 - 1000 edge_13_1_0_0 <= 0
 inactive_no_flow_13_3_0_0: flow_13_3_0_0 - 1000 edge_13_3_0_0 <= 0
 inactive_no_flow_13_6_0_0: flow_13_6_0_0 - 1000 edge_13_6_0_0 <= 0
 inactive_no_flow_13_7_0_0: flow_13_7_0_0 - 1000 edge_13_7_0_0 <= 0
 inactive_no_flow_13_8_0_0: flow_13_8_0_0 - 1000 edge_13_8_0_0 <= 0
 inactive_no_flow_13_9_0_0: flow_13_9_0_0 - 1000 edge_13_9_0_0 <= 0
 inactive_no_flow_13_10_0_0: flow_13_10_0_0 - 1000 edge_13_10_0_0 <= 0
 inactive_no_flow_13_11_0_0: flow_13_11_0_0 - 1000 edge_13_11_0_0 <= 0
 inactive_no_flow_13_12_0_0: flow_13_12_0_0 - 1000 edge_13_12_0_0 <= 0
 inactive_no_flow_13_14_0_0: flow_13_14_0_0 - 1000 edge_13_14_0_0 <= 0
 inactive_no_flow_13_15_0_0: flow_13_15_0_0 - 1000 edge_13_15_0_0 <= 0
 inactive_no_flow_13_16_0_0: flow_13_16_0_0 - 1000 edge_13_16_0_0 <= 0
 inactive_no_flow_13_17_0_0: flow_13_17_0_0 - 1000 edge_13_17_0_0 <= 0
 inactive_no_flow_14_1_0_0: flow_14_1_0_0 - 1000 edge_14_1_0_0 <= 0
 inactive_no_flow_14_3_0_0: flow_14_3_0_0 - 1000 edge_14_3_0_0 <= 0
 inactive_no_flow_14_4_0_0: flow_14_4_0_0 - 1000 edge_14_4_0_0 <= 0
 inactive_no_flow_14_6_0_0: flow_14_6_0_0 - 1000 edge_14_6_0_0 <= 0
 inactive_no_flow_14_7_0_0: flow_14_7_0_0 - 1000 edge_14_7_0_0 <= 0
 inactive_no_flow_14_8_0_0: flow_14_8_0_0 - 1000 edge_14_8_0_0 <= 0
 inactive_no_flow_14_9_0_0: flow_14_9_0_0 - 1000 edge_14_9_0_0 <= 0
 inactive_no_flow_14_10_0_0: flow_14_10_0_0 - 1000 edge_14_10_0_0 <= 0
 inactive_no_flow_14_11_0_0: flow_14_11_0_0 - 1000 edge_14_11_0_0 <= 0
 inactive_no_flow_14_12_0_0: flow_14_12_0_0 - 1000 edge_14_12_0_0 <= 0
 inactive_no_flow_14_13_0_0: flow_14_13_0_0 - 1000 edge_14_13_0_0 <= 0
 inactive_no_flow_14_15_0_0: flow_14_15_0_0 - 1000 edge_14_15_0_0 <= 0
 inactive_no_flow_14_16_0_0: flow_14_16_0_0 - 1000 edge_14_16_0_0 <= 0
 inactive_no_flow_14_17_0_0: flow_14_17_0_0 - 1000 edge_14_17_0_0 <= 0
 inactive_no_flow_15_14_0_0: flow_15_14_0_0 - 1000 edge_15_14_0_0 <= 0
 inactive_no_flow_15_16_0_0: flow_15_16_0_0 - 1000 edge_15_16_0_0 <= 0
 inactive_no_flow_15_17_0_0: flow_15_17_0_0 - 1000 edge_15_17_0_0 <= 0
 inactive_no_flow_16_1_0_0: flow_16_1_0_0 - 1000 edge_16_1_0_0 <= 0
 inactive_no_flow_16_3_0_0: flow_16_3_0_0 - 1000 edge_16_3_0_0 <= 0
 inactive_no_flow_16_4_0_0: flow_16_4_0_0 - 1000 edge_16_4_0_0 <= 0
 inactive_no_flow_16_5_0_0: flow_16_5_0_0 - 1000 edge_16_5_0_0 <= 0
 inactive_no_flow_16_6_0_0: flow_16_6_0_0 - 1000 edge_16_6_0_0 <= 0
 inactive_no_flow_16_7_0_0: flow_16_7_0_0 - 1000 edge_16_7_0_0 <= 0
 inactive_no_flow_16_8_0_0: flow_16_8_0_0 - 1000 edge_16_8_0_0 <= 0
 inactive_no_flow_16_9_0_0: flow_16_9_0_0 - 1000 edge_16_9_0_0 <= 0
 inactive_no_flow_16_10_0_0: flow_16_10_0_0 - 1000 edge_16_10_0_0 <= 0
 inactive_no_flow_16_11_0_0: flow_16_11_0_0 - 1000 edge_16_11_0_0 <= 0
 inactive_no_flow_16_12_0_0: flow_16_12_0_0 - 1000 edge_16_12_0_0 <= 0
 inactive_no_flow_16_13_0_0: flow_16_13_0_0 - 1000 edge_16_13_0_0 <= 0
 inactive_no_flow_16_14_0_0: flow_16_14_0_0 - 1000 edge_16_14_0_0 <= 0
 inactive_no_flow_16_15_0_0: flow_16_15_0_0 - 1000 edge_16_15_0_0 <= 0
 inactive_no_flow_16_17_0_0: flow_16_17_0_0 - 1000 edge_16_17_0_0 <= 0
 inactive_no_flow_17_9_0_0: flow_17_9_0_0 - 1000 edge_17_9_0_0 <= 0
 inactive_no_flow_17_14_0_0: flow_17_14_0_0 - 1000 edge_17_14_0_0 <= 0
 inactive_no_flow_17_15_0_0: flow_17_15_0_0 - 1000 edge_17_15_0_0 <= 0
 inactive_no_flow_17_16_0_0: flow_17_16_0_0 - 1000 edge_17_16_0_0 <= 0
Bounds
Binaries
 edge_0_1_0_0 edge_0_3_0_0 edge_0_4_0_0 edge_0_5_0_0 edge_0_6_0_0
 edge_0_7_0_0 edge_0_8_0_0 edge_0_9_0_0 edge_0_10_0_0 edge_0_12_0_0
 edge_0_13_0_0 edge_0_14_0_0 edge_0_16_0_0 edge_1_2_0_0 edge_1_3_0_0
 edge_1_4_0_0 edge_1_6_0_0 edge_1_7_0_0 edge_1_8_0_0 edge_1_10_0_0
 edge_1_11_0_0 edge_1_13_0_0 edge_1_14_0_0 edge_1_16_0_0 edge_2_1_0_0
 edge_2_4_0_0 edge_2_6_0_0 edge_3_1_0_0 edge_3_2_0_0 edge_3_4_0_0
 edge_3_5_0_0 edge_3_6_0_0 edge_3_7_0_0 edge_3_8_0_0 edge_3_9_0_0
 edge_3_10_0_0 edge_3_11_0_0 edge_3_12_0_0 edge_3_13_0_0 edge_3_14_0_0
 edge_3_16_0_0 edge_3_17_0_0 edge_4_1_0_0 edge_4_3_0_0 edge_4_5_0_0
 edge_4_6_0_0 edge_4_7_0_0 edge_4_8_0_0 edge_4_9_0_0 edge_4_10_0_0
 edge_4_14_0_0 edge_4_16_0_0 edge_5_1_0_0 edge_5_3_0_0 edge_5_4_0_0
 edge_5_6_0_0 edge_5_7_0_0 edge_5_8_0_0 edge_5_9_0_0 edge_5_10_0_0
 edge_5_11_0_0 edge_5_14_0_0 edge_6_1_0_0 edge_6_2_0_0 edge_6_3_0_0
 edge_6_4_0_0 edge_6_5_0_0 edge_6_6_0_0 edge_6_7_0_0 edge_6_8_0_0
 edge_6_9_0_0 edge_6_10_0_0 edge_6_11_0_0 edge_6_12_0_0 edge_6_13_0_0
 edge_6_14_0_0 edge_6_16_0_0 edge_6_17_0_0 edge_7_1_0_0 edge_7_2_0_0
 edge_7_3_0_0 edge_7_4_0_0 edge_7_5_0_0 edge_7_6_0_0 edge_7_8_0_0
 edge_7_9_0_0 edge_7_10_0_0 edge_7_11_0_0 edge_7_12_0_0 edge_7_13_0_0
 edge_7_14_0_0 edge_7_15_0_0 edge_7_16_0_0 edge_7_17_0_0 edge_8_1_0_0
 edge_8_3_0_0 edge_8_4_0_0 edge_8_5_0_0 edge_8_6_0_0 edge_8_7_0_0
 edge_8_9_0_0 edge_8_10_0_0 edge_8_11_0_0 edge_9_1_0_0 edge_9_3_0_0
 edge_9_4_0_0 edge_9_5_0_0 edge_9_6_0_0 edge_9_7_0_0 edge_9_8_0_0
 edge_9_9_0_0 edge_9_10_0_0 edge_9_11_0_0 edge_9_12_0_0 edge_9_13_0_0
 edge_9_14_0_0 edge_9_15_0_0 edge_9_16_0_0 edge_9_17_0_0 edge_10_1_0_0
 edge_10_2_0_0 edge_10_3_0_0 edge_10_4_0_0 edge_10_5_0_0 edge_10_6_0_0
 edge_10_7_0_0 edge_10_8_0_0 edge_10_9_0_0 edge_10_10_0_0 edge_10_11_0_0
 edge_10_12_0_0 edge_10_13_0_0 edge_10_14_0_0 edge_10_15_0_0 edge_10_16_0_0
 edge_10_17_0_0 edge_11_9_0_0 edge_11_10_0_0 edge_11_12_0_0 edge_11_13_0_0
 edge_12_1_0_0 edge_12_3_0_0 edge_12_4_0_0 edge_12_6_0_0 edge_12_7_0_0
 edge_12_9_0_0 edge_12_10_0_0 edge_12_11_0_0 edge_12_13_0_0 edge_12_14_0_0
 edge_12_16_0_0 edge_12_17_0_0 edge_13_1_0_0 edge_13_3_0_0 edge_13_6_0_0
 edge_13_7_0_0 edge_13_8_0_0 edge_13_9_0_0 edge_13_10_0_0 edge_13_11_0_0
 edge_13_12_0_0 edge_13_14_0_0 edge_13_15_0_0 edge_13_16_0_0 edge_13_17_0_0
 edge_14_1_0_0 edge_14_3_0_0 edge_14_4_0_0 edge_14_6_0_0 edge_14_7_0_0
 edge_14_8_0_0 edge_14_9_0_0 edge_14_10_0_0 edge_14_11_0_0 edge_14_12_0_0
 edge_14_13_0_0 edge_14_15_0_0 edge_14_16_0_0 edge_14_17_0_0 edge_15_14_0_0
 edge_15_16_0_0 edge_15_17_0_0 edge_16_1_0_0 edge_16_3_0_0 edge_16_4_0_0
 edge_16_5_0_0 edge_16_6_0_0 edge_16_7_0_0 edge_16_8_0_0 edge_16_9_0_0
 edge_16_10_0_0 edge_16_11_0_0 edge_16_12_0_0 edge_16_13_0_0 edge_16_14_0_0
 edge_16_15_0_0 edge_16_17_0_0 edge_17_9_0_0 edge_17_14_0_0 edge_17_15_0_0
 edge_17_16_0_0
End
